p cnf 334 110
e 276 275 281 283 289 287 285 292 291 301 300 304 303 302 306 305 0
r 0.352 277 279 294 293 297 296 295 299 298 0
e 307 308 309 310 311 312 313 314 315 316 317 318 319 320 321 322 323 324 325 326 327 328 329 330 331 332 333 334 0
333 334 0
-333 -308 -279 -276 -275 0
275 276 279 -333 -308 0
275 276 277 -333 -307 0
-333 -307 -277 -276 -275 0
307 308 -333 0
281 -333 -309 -276 0
276 -333 -309 -281 0
281 -333 -309 -275 0
275 -333 -309 -281 0
283 -333 -310 -276 0
276 -333 -310 -283 0
283 -333 -310 -275 0
275 -333 -310 -283 0
309 310 -333 0
331 332 -334 0
291 -334 -332 -305 0
305 -334 -332 -291 0
292 -334 -332 -306 0
306 -334 -332 -292 0
289 -334 -332 -305 -287 -285 0
305 -334 -332 -289 -287 -285 0
287 -334 -332 -305 -289 -285 0
287 289 305 -334 -332 -285 0
285 -334 -332 -305 -289 -287 0
285 289 305 -334 -332 -287 0
285 287 289 -334 -332 -305 0
285 287 305 -334 -332 -289 0
285 287 -334 -332 -330 -306 0
287 305 -334 -332 -330 -306 0
285 305 -334 -332 -330 -306 0
305 -334 -332 -330 -306 0
287 -334 -332 -329 -306 0
285 -334 -332 -329 -306 0
329 330 -334 -332 -306 0
306 -334 -332 -287 -285 0
306 -334 -332 -305 -287 0
306 -334 -332 -305 -285 0
291 -334 -331 -300 0
300 -334 -331 -291 0
292 -334 -331 -301 0
301 -334 -331 -292 0
285 287 -334 -331 -302 0
-334 -331 -302 -287 -285 0
285 302 -334 -331 -287 0
287 302 -334 -331 -285 0
300 302 -334 -331 -289 0
-334 -331 -302 -300 -289 0
289 302 -334 -331 -300 0
289 300 -334 -331 -302 0
285 -334 -331 -303 0
287 -334 -331 -303 0
303 -334 -331 -287 -285 0
302 -334 -331 -304 0
300 -334 -331 -304 0
304 -334 -331 -302 -300 0
303 304 -334 -331 -301 0
301 -334 -331 -303 0
301 -334 -331 -304 0
327 328 -334 0
-334 -328 -326 -324 -299 -287 -285 0
-334 -328 -326 -324 -299 -298 -287 0
-334 -328 -326 -324 -299 -298 -285 0
285 287 299 -334 -328 -326 -324 -322 0
287 298 299 -334 -328 -326 -324 -322 0
285 298 299 -334 -328 -326 -324 -322 0
298 299 -334 -328 -326 -324 -322 0
287 299 -334 -328 -326 -324 -321 0
285 299 -334 -328 -326 -324 -321 0
299 321 322 -334 -328 -326 -324 0
285 287 289 298 -334 -328 -326 -323 0
285 287 -334 -328 -326 -323 -298 -289 0
285 298 -334 -328 -326 -323 -289 -287 0
285 289 -334 -328 -326 -323 -298 -287 0
287 298 -334 -328 -326 -323 -289 -285 0
287 289 -334 -328 -326 -323 -298 -285 0
289 298 -334 -328 -326 -323 -287 -285 0
-334 -328 -326 -323 -298 -289 -287 -285 0
323 324 -334 -328 -326 0
291 292 298 299 -334 -328 -325 0
291 298 -334 -328 -325 -299 -292 0
292 299 -334 -328 -325 -298 -291 0
-334 -328 -325 -299 -298 -292 -291 0
325 326 -334 -328 0
319 320 -334 -327 0
-334 -327 -319 -294 -293 -292 -291 0
292 294 -334 -327 -319 -293 -291 0
291 293 -334 -327 -319 -294 -292 0
291 292 293 294 -334 -327 -319 0
317 318 -334 -327 -320 0
-334 -327 -320 -318 -296 -294 0
-334 -327 -320 -318 -297 -294 0
294 296 297 -334 -327 -320 -318 0
315 316 -334 -327 -320 -317 0
-334 -327 -320 -317 -316 -297 -295 -293 0
295 297 -334 -327 -320 -317 -316 0
293 297 -334 -327 -320 -317 -316 0
313 314 -334 -327 -320 -317 -315 0
-334 -327 -320 -317 -315 -314 -296 -287 -285 0
285 296 -334 -327 -320 -317 -315 -314 0
287 296 -334 -327 -320 -317 -315 -314 0
311 312 -334 -327 -320 -317 -315 -313 0
285 -334 -327 -320 -317 -315 -313 -311 -295 -287 0
287 -334 -327 -320 -317 -315 -313 -311 -295 -285 0
285 287 295 -334 -327 -320 -317 -315 -313 -311 0
295 -334 -327 -320 -317 -315 -313 -311 -287 -285 0
289 -334 -327 -320 -317 -315 -313 -312 -295 -293 0
289 293 295 -334 -327 -320 -317 -315 -313 -312 0
293 -334 -327 -320 -317 -315 -313 -312 -295 -289 0
295 -334 -327 -320 -317 -315 -313 -312 -293 -289 0
